(set-option :produce-models true)
(set-logic QF_UF)
(declare-fun p26() Bool)
(declare-fun p0() Bool)
(declare-fun p13() Bool)
(declare-fun p59() Bool)
(declare-fun p29() Bool)
(declare-fun p45() Bool)
(declare-fun p52() Bool)
(declare-fun p16() Bool)
(declare-fun p23() Bool)
(declare-fun p51() Bool)
(declare-fun p58() Bool)
(declare-fun p30() Bool)
(declare-fun p50() Bool)
(declare-fun p19() Bool)
(declare-fun p22() Bool)
(declare-fun p37() Bool)
(declare-fun p7() Bool)
(declare-fun p53() Bool)
(declare-fun p33() Bool)
(declare-fun p46() Bool)
(declare-fun p6() Bool)
(declare-fun p8() Bool)
(declare-fun p1() Bool)
(declare-fun p34() Bool)
(declare-fun p42() Bool)
(declare-fun p54() Bool)
(declare-fun p10() Bool)
(declare-fun p57() Bool)
(declare-fun p47() Bool)
(declare-fun p32() Bool)
(declare-fun p31() Bool)
(declare-fun p14() Bool)
(declare-fun p38() Bool)
(declare-fun p40() Bool)
(declare-fun p48() Bool)
(declare-fun p49() Bool)
(declare-fun p24() Bool)
(declare-fun p15() Bool)
(declare-fun p5() Bool)
(declare-fun p4() Bool)
(declare-fun p35() Bool)
(declare-fun p55() Bool)
(declare-fun p12() Bool)
(declare-fun p56() Bool)
(declare-fun p36() Bool)
(declare-fun p11() Bool)
(declare-fun p21() Bool)
(declare-fun p17() Bool)
(declare-fun p28() Bool)
(declare-fun p9() Bool)
(declare-fun p3() Bool)
(declare-fun p20() Bool)
(declare-fun p27() Bool)
(declare-fun p41() Bool)
(declare-fun p44() Bool)
(declare-fun p18() Bool)
(declare-fun p39() Bool)
(declare-fun p25() Bool)
(declare-fun p43() Bool)
(declare-fun p2() Bool)
(assert
(and (or (not p26) (not p0) p13) (or (not p59) (not p29) p45) (or p52 (not p16) (not p23)) (or (not p51) (not p58) (not p26)) (or (not p30) p50 p51) (or p19 (not p22) p0) (or (not p37) p7 p53) (or (not p33) (not p22) p13) (or p46 (not p6) (not p59)) (or (not p8) (not p1) (not p34)) (or p42 p54 (not p10)) (or (not p57) (not p47) (not p45)) (or p32 p1 p57) (or (not p0) (not p58) (not p26)) (or p8 (not p42) (not p16)) (or p34 p33 (not p0)) (or p29 p31 (not p6)) (or (not p14) (not p22) p52) (or p38 p14 p32) (or p16 (not p40) (not p23)) (or (not p7) p48 p6) (or p10 p54 p8) (or p23 (not p13) (not p0)) (or p49 (not p24) p15) (or p5 p4 p47) (or p35 p48 (not p55)) (or p12 p10 (not p5)) (or (not p56) p36 (not p13)) (or p50 (not p50) (not p38)) (or p51 p0 p22) (or p11 p26 p45) (or (not p11) p49 (not p21)) (or (not p30) p17 p50) (or p14 (not p53) (not p56)) (or p28 (not p9) p11) (or (not p15) (not p3) p33) (or (not p14) (not p20) p48) (or p27 p0 (not p41)) (or p44 p28 p59) (or (not p54) p28 (not p17)) (or p51 (not p52) (not p59)) (or (not p18) (not p39) p58) (or (not p41) p31 (not p33)) (or (not p12) (not p32) (not p27)) (or p23 (not p8) (not p36)) (or (not p31) (not p55) (not p36)) (or p28 p15 p41) (or p18 p15 p52) (or p48 p0 p58) (or (not p53) p11 (not p3)) (or (not p51) (not p11) (not p21)) (or p3 p29 p25) (or p57 (not p43) p40) (or (not p4) (not p25) (not p39)) (or (not p11) p49 (not p28)) (or (not p3) (not p25) (not p45)) (or p50 p0 p39) (or p13 (not p27) p58) (or p21 p40 p20) (or (not p51) p21 (not p25)) (or (not p32) p12 p44) (or p52 (not p35) p2) (or p21 (not p28) p50) (or p15 (not p5) p19) (or p23 p54 (not p27)) (or (not p47) (not p40) (not p55)) (or (not p35) p42 p41) (or (not p6) (not p24) (not p56)) (or p42 p43 (not p43)) (or (not p33) p24 (not p58)) (or p4 (not p2) p20) (or p47 p46 (not p36)) (or (not p40) (not p21) (not p14)) (or p27 p18 (not p35)) (or p42 p26 p6) (or p5 p21 p8) (or (not p24) p59 p44) (or p36 (not p42) (not p36)) (or p28 p37 (not p33)) (or (not p45) p8 (not p42)) (or p26 p35 p3) (or p4 p13 (not p16)) (or (not p12) p10 p14) (or (not p49) (not p54) p25) (or (not p12) p1 p54) (or (not p58) p44 (not p0)) (or (not p54) p35 p49) (or p33 p48 (not p12)) (or p42 p36 p32) (or (not p55) p33 p37) (or (not p5) (not p43) (not p53)) (or p42 p44 (not p14)) (or p19 p47 (not p20)) (or p3 (not p4) p46) (or (not p10) p0 (not p56)) (or (not p15) (not p11) (not p53)) (or p10 p10 (not p28)) (or (not p12) p40 (not p53)) (or (not p42) p1 p28) (or (not p24) (not p26) p52) (or p36 p23 p19) (or (not p38) p41 p17) (or p9 (not p28) (not p41)) (or p15 p9 p43) (or p54 p20 (not p56)) (or p1 p39 (not p56)) (or (not p1) p59 (not p30)) (or p1 (not p50) (not p48)) (or (not p22) (not p50) (not p4)) (or (not p38) (not p33) (not p19)) (or (not p44) (not p58) p51) (or p50 p33 p51) (or (not p24) (not p32) p3) (or p17 (not p59) p54) (or p31 p26 p3) (or p48 p13 (not p0)) (or p48 p46 p35) (or p33 p31 p13) (or (not p55) p29 (not p56)) (or p53 p50 p34) (or p9 (not p33) p30) (or (not p17) (not p11) p1) (or p54 (not p14) p24) (or (not p38) (not p10) p5) (or (not p49) p41 p35) (or (not p59) (not p20) (not p6)) (or (not p0) (not p2) (not p17)) (or p8 p30 p0) (or (not p9) (not p42) (not p5)) (or p47 p51 p50) (or p52 (not p16) p13) (or p27 p10 p20) (or (not p4) (not p4) (not p48)) (or p2 (not p16) (not p31)) (or p34 p7 p48) (or (not p54) p25 (not p17)) (or p16 p6 p24) (or p54 p49 p2) (or p35 p39 p48) (or p0 (not p35) (not p15)) (or p39 (not p29) (not p0)) (or p34 p17 (not p3)) (or p43 p32 p19) (or (not p57) (not p5) (not p55)) (or p33 p39 p16) (or p26 p34 (not p30)) (or (not p43) (not p51) (not p44)) (or (not p49) p27 (not p1)) (or (not p45) p38 (not p59)) (or (not p52) (not p21) p39) (or p15 (not p9) p15) (or p7 p30 (not p53)) (or (not p30) (not p51) p33) (or p15 p0 (not p34)) (or p35 p25 p46) (or p27 p57 p24) (or p51 p9 p52) (or p22 (not p55) p6) (or p59 (not p34) p15) (or (not p53) (not p30) (not p12)) (or (not p39) p46 (not p26)) (or p54 p16 p23) (or (not p9) (not p15) (not p12)) (or p37 (not p26) p41) (or (not p24) p38 (not p31)) (or p0 (not p21) p28) (or p16 p55 p59) (or (not p36) (not p1) (not p44)) (or p15 p42 (not p32)) (or (not p57) p36 (not p24)) (or (not p18) (not p17) p22) (or p22 p48 (not p58)) (or p33 p45 p17) (or (not p35) (not p49) p17) (or p14 (not p5) p1) (or (not p39) (not p5) p50) (or (not p53) (not p59) p39) (or (not p45) p1 (not p3)) (or p52 (not p5) p20) (or (not p40) p9 p0) (or (not p39) p57 (not p51)) (or (not p56) (not p55) (not p18)) (or (not p6) p44 (not p8)) (or p21 p5 p29) (or (not p13) (not p45) (not p56)) (or (not p17) (not p36) (not p23)) (or p49 p25 (not p15)) (or (not p57) (not p35) (not p29)) (or (not p8) p35 (not p32)) (or (not p44) (not p48) p50) (or (not p21) p4 p28) (or p30 p36 p32) (or (not p21) (not p53) p46) (or (not p11) (not p19) (not p32)) (or (not p17) p37 (not p28)) (or (not p40) p43 p53) (or (not p11) (not p33) p55) (or (not p9) (not p0) p45) (or (not p51) p17 (not p0)) (or p34 (not p50) p14) (or (not p46) (not p49) (not p47)) (or p17 (not p12) p36) (or p8 p34 p56) (or p2 (not p9) (not p20)) (or p42 (not p40) p14) (or (not p33) p3 p54) (or p25 (not p18) p2) (or p26 (not p44) p59) (or (not p33) p36 (not p24)) (or p56 (not p16) p2) (or (not p34) p34 (not p11)) (or p20 (not p17) p45) (or (not p10) (not p52) (not p42)) (or p37 (not p41) p7) (or (not p4) p2 p22) (or p49 p27 (not p24)) (or (not p10) (not p0) p9) (or p44 p23 (not p21)) (or p22 p45 p3) (or p11 (not p43) p39) (or (not p18) (not p47) p18) (or p18 (not p33) (not p2)) (or p44 (not p55) p26) (or (not p31) (not p36) p10) (or (not p54) p20 p19) (or (not p16) p17 p4) (or p56 (not p50) (not p46)) (or (not p34) (not p50) (not p26)) (or (not p53) (not p26) p12) (or p56 p56 p28) (or p6 p59 (not p17)) (or p34 p43 (not p16)) (or (not p29) p11 p32) (or (not p56) p30 (not p50)) (or p24 p41 (not p52)) (or (not p10) p34 (not p26)) (or p36 (not p4) p52) (or (not p18) p13 (not p52)) (or (not p3) (not p0) (not p12)) (or p32 p47 p27) (or (not p48) p28 p39) (or (not p5) (not p31) p54) (or (not p17) p31 p15) (or p27 (not p25) (not p52)) (or p33 p37 (not p25)) (or p26 (not p11) (not p24)) (or (not p44) (not p51) p40) (or (not p10) p59 p12) (or (not p58) (not p40) p34) (or p54 (not p26) p11) (or p31 p30 p33) (or p54 p48 p59))
)
(check-sat)
(get-model)
